20 380
0 1 66.1
0 2 20.7
0 3 46.5
0 4 37.7
0 5 26.1
0 6 15.8
0 7 9.5
0 8 53.0
0 9 64.7
0 10 69.4
0 11 42.1
0 12 32.2
0 13 12.5
0 14 69.5
0 15 54.5
0 16 43.5
0 17 40.3
0 18 52.3
0 19 31.6
1 2 77.2
1 3 51.1
1 4 36.0
1 5 41.6
1 6 50.6
1 7 56.6
1 8 63.1
1 9 82.9
1 10 12.6
1 11 30.4
1 12 59.9
1 13 78.4
1 14 24.4
1 15 37.2
1 16 46.1
1 17 53.1
1 18 82.3
1 19 34.8
2 3 42.1
2 4 42.9
2 5 35.8
2 6 32.6
2 7 26.4
2 8 43.5
2 9 49.6
2 10 77.3
2 11 58.7
2 12 24.8
2 13 16.6
2 14 74.1
2 15 55.2
2 16 41.8
2 17 35.5
2 18 35.4
2 19 43.1
3 4 20.0
3 5 29.0
3 6 41.2
3 7 41.4
3 8 12.5
3 9 32.3
3 10 45.2
3 11 51.5
3 12 17.3
3 13 53.6
3 14 37.2
3 15 16.3
3 16 5.9
3 17 6.6
3 18 31.6
3 19 32.6
4 5 12.7
4 6 26.6
4 7 29.7
4 8 32.3
4 9 51.7
4 10 34.5
4 11 31.5
4 12 24.0
4 13 48.3
4 14 32.1
4 15 18.1
4 16 14.2
4 17 18.9
4 18 47.7
4 19 13.3
5 6 13.8
5 7 17.4
5 8 39.9
5 9 57.6
5 10 43.5
5 11 26.1
5 12 24.7
5 13 37.7
5 14 43.5
5 15 30.8
5 16 23.9
5 17 25.2
5 18 50.4
5 19 7.4
6 7 6.6
6 8 50.7
6 9 66.3
6 10 54.9
6 11 26.6
6 12 32.0
6 13 28.3
6 14 56.5
6 15 44.7
6 16 36.7
6 17 36.3
6 18 56.6
6 19 17.0
7 8 49.7
7 9 63.9
7 10 60.2
7 11 33.2
7 12 29.8
7 13 21.9
7 14 60.8
7 15 47.2
7 16 37.6
7 17 35.8
7 18 53.1
7 19 22.2
8 9 19.9
8 10 56.1
8 11 63.7
8 12 20.8
8 13 57.6
8 14 46.8
8 15 26.6
8 16 18.4
8 17 14.7
8 18 22.2
8 19 44.5
9 10 75.4
9 11 82.5
9 12 34.3
9 13 65.9
9 14 65.2
9 15 46.0
9 16 38.0
9 17 33.0
9 18 15.1
9 19 63.0
10 11 39.6
10 12 57.1
10 13 81.1
10 14 12.4
10 15 29.6
10 16 41.0
10 17 48.6
10 18 76.8
10 19 38.0
11 12 50.8
11 13 54.5
11 14 46.7
11 15 45.7
11 16 45.6
11 17 49.6
11 18 76.4
11 19 19.6
12 13 37.2
12 14 51.6
12 15 31.4
12 16 17.7
12 17 10.8
12 18 25.7
12 19 31.4
13 14 80.4
13 15 63.9
13 16 51.7
13 17 47.0
13 18 52.0
13 19 43.7
14 15 21.0
14 16 34.2
14 17 41.9
14 18 68.4
14 19 39.7
15 16 13.7
15 17 21.1
15 18 47.6
15 19 30.6
16 17 7.7
16 18 36.2
16 19 27.0
17 18 29.2
17 19 30.1
18 19 56.8
